NAME: random67
TYPE: TSP
DIMENSION: 67
EDGE_WEIGHT_TYPE: EXPLICIT
EDGE_WEIGHT_FORMAT: FULL_MATRIX
EDGE_WEIGHT_SECTION
0 615 615 34 615 38 615 615 615 615 615 36 615 15 48 615 615 10 615 615 615 615 615 42 615 20 615 11 615 45 615 10 17 615 615 26 615 615 615 615 20 615 50 615 615 615 615 615 615 40 615 615 615 615 615 615 33 615 615 25 615 615 615 615 24 615 19
615 0 615 615 615 29 43 615 615 29 615 35 615 40 38 28 13 615 615 615 29 6 615 615 615 615 32 615 10 10 615 615 615 18 615 615 615 615 615 17 615 21 47 33 615 615 10 11 615 615 16 13 5 615 32 615 615 30 21 615 615 615 615 17 44 615 615
615 615 0 615 615 615 20 13 42 35 615 615 19 615 615 615 615 615 36 615 615 615 21 615 51 615 615 615 615 615 29 615 615 615 31 615 15 23 18 615 615 615 19 615 39 40 615 615 615 615 615 615 615 28 615 52 615 615 615 44 20 615 615 615 615 615 615
34 615 615 0 615 615 615 615 615 615 17 44 615 615 615 615 615 33 21 615 615 615 615 9 21 14 615 24 615 615 615 26 43 615 30 18 615 80 615 615 20 615 47 615 615 615 615 615 19 615 615 615 615 29 615 19 615 615 615 34 37 615 615 615 615 615 615
615 615 615 615 0 615 615 615 47 615 615 615 615 615 615 44 27 615 615 1 615 23 54 615 615 615 615 615 21 615 51 615 615 28 615 615 615 615 615 15 615 12 615 615 40 51 19 615 615 615 13 615 615 615 20 615 615 27 23 615 615 1 27 13 615 9 615
38 29 615 615 615 0 615 615 615 45 615 43 615 29 13 615 29 615 615 615 27 615 615 615 615 615 44 615 39 22 615 43 44 46 615 615 615 615 615 615 615 615 60 14 615 615 615 26 615 31 615 21 32 615 49 615 17 615 615 42 615 615 615 615 18 615 29
615 43 20 615 615 615 0 7 30 19 615 26 2 615 615 16 615 615 42 615 615 615 1 615 615 615 21 615 615 44 17 615 615 28 615 615 16 29 11 615 615 615 15 615 23 615 615 615 615 615 615 615 615 615 615 615 615 28 32 37 32 615 29 615 615 615 615
615 615 13 615 615 615 7 0 615 23 615 28 6 615 615 21 615 615 38 615 615 615 8 615 57 615 24 615 615 49 20 615 615 36 38 615 11 26 11 615 615 615 13 615 29 33 615 615 615 615 615 615 615 33 615 615 615 615 615 38 26 615 615 615 615 615 615
615 615 42 615 47 615 30 615 0 615 615 615 30 615 615 37 615 615 615 48 615 615 29 615 615 615 615 615 615 615 14 615 615 36 615 615 615 28 24 40 615 55 615 615 11 5 47 615 615 615 47 615 615 615 67 615 615 24 33 615 615 47 23 44 615 55 615
615 29 35 615 615 45 19 23 615 0 615 12 20 33 615 6 615 615 39 615 615 33 19 615 615 615 6 615 29 27 32 615 615 20 615 615 23 615 30 33 615 615 18 615 33 615 615 39 615 615 615 40 615 615 615 615 615 29 27 24 37 615 30 615 615 615 615
615 615 615 17 615 615 615 615 615 615 0 615 615 615 615 615 615 50 27 615 615 615 615 10 7 31 615 615 615 615 615 615 615 615 26 31 615 615 615 615 615 615 615 615 615 615 615 615 2 615 615 615 615 615 615 5 615 615 615 615 615 615 615 615 615 615 615
36 35 615 44 615 43 26 28 615 12 615 0 615 24 615 17 615 615 29 615 615 615 615 615 615 615 6 38 615 30 615 30 615 31 615 26 22 615 615 615 27 615 17 55 615 615 615 615 615 615 615 43 615 33 615 615 51 615 615 12 32 615 615 615 43 615 48
615 615 19 615 615 615 2 6 30 20 615 615 0 615 615 18 615 615 615 615 615 615 2 615 615 615 23 615 615 615 16 615 615 30 43 615 16 27 10 615 615 615 16 615 23 29 615 615 615 615 615 615 615 615 615 615 615 29 615 615 32 615 615 615 615 615 615
15 40 615 615 615 29 615 615 615 33 615 24 615 0 42 615 615 25 37 615 54 615 615 49 615 29 28 23 615 31 615 15 30 46 615 26 615 615 615 615 21 615 40 44 615 615 615 45 615 43 615 41 615 615 615 615 31 615 615 15 48 615 615 615 22 615 24
48 38 615 615 615 13 615 615 615 615 615 615 615 42 0 615 33 615 615 615 23 615 615 615 615 615 615 615 615 33 615 615 51 615 615 615 615 615 615 615 615 615 615 8 615 615 615 31 615 27 615 26 615 615 49 615 18 615 615 615 615 615 615 615 25 615 35
615 28 615 615 44 615 16 21 37 6 615 17 18 615 615 0 615 615 615 615 615 615 16 615 615 615 11 615 27 28 27 615 615 17 615 615 24 44 26 29 615 615 20 615 27 38 615 615 615 615 615 40 615 615 615 615 615 23 22 615 615 615 25 615 615 615 615
615 13 615 615 27 29 615 615 615 615 615 615 615 615 33 615 0 615 615 26 17 11 615 615 615 615 615 615 18 19 615 615 615 29 615 615 615 615 615 615 615 15 615 27 615 615 16 4 615 59 17 9 10 615 21 615 615 615 615 615 615 26 615 20 615 28 615
10 615 615 33 615 615 615 615 615 615 50 615 615 25 615 615 615 0 43 615 615 615 615 41 615 19 615 11 615 615 615 17 10 615 615 31 615 615 615 615 25 615 615 615 615 615 615 615 615 41 615 615 615 615 615 52 37 615 615 34 615 615 615 615 30 615 21
615 615 36 21 615 615 42 38 615 39 27 29 615 37 615 615 615 43 0 615 615 615 615 25 24 26 34 32 615 58 615 29 615 615 16 12 26 60 49 615 19 615 27 615 615 615 615 615 28 615 615 615 615 11 615 24 615 615 615 24 17 615 615 615 615 615 615
615 615 615 615 1 615 615 615 48 615 615 615 615 615 615 615 26 615 615 0 40 23 615 615 615 615 615 615 615 615 615 615 615 615 615 615 615 615 615 16 615 12 615 615 41 615 20 615 615 615 13 615 615 615 19 615 615 615 615 615 615 1 28 13 615 8 615
615 29 615 615 615 27 615 615 615 615 615 615 615 54 23 615 17 615 615 40 0 28 615 615 615 615 615 615 615 30 615 615 71 615 615 615 615 615 615 615 615 28 615 16 615 615 615 18 615 51 33 17 27 615 26 615 40 615 615 615 615 615 615 615 44 39 55
615 6 615 615 23 615 615 615 615 33 615 615 615 615 615 615 11 615 615 23 28 0 615 615 615 615 615 615 7 16 615 615 615 18 615 615 615 615 615 13 615 15 615 615 615 615 6 10 615 615 10 15 2 615 26 615 615 28 19 615 615 23 615 12 615 28 615
615 615 21 615 54 615 1 8 29 19 615 615 2 615 615 16 615 615 615 615 615 615 0 615 615 615 22 615 615 44 16 615 615 28 44 615 17 28 10 40 615 615 16 615 22 29 615 615 615 615 615 615 615 615 615 615 615 28 32 615 615 615 28 615 615 615 615
42 615 615 9 615 615 615 615 615 615 10 615 615 49 615 615 615 41 25 615 615 615 615 0 15 22 615 32 615 615 615 35 50 615 31 26 615 615 615 615 28 615 615 615 615 615 615 615 11 82 615 615 615 615 615 13 615 615 615 42 615 615 615 615 615 615 60
615 615 51 21 615 615 615 57 615 615 7 615 615 615 615 615 615 615 24 615 615 615 615 15 0 35 615 615 615 615 77 615 615 615 20 31 47 74 68 615 615 615 49 615 615 615 615 615 7 615 615 615 615 24 615 2 615 615 615 47 32 615 615 615 615 615 615
20 615 615 14 615 615 615 615 615 615 31 615 615 29 615 615 615 19 26 615 615 615 615 22 35 0 615 10 615 615 615 14 29 615 615 17 615 615 615 615 13 615 48 615 615 615 615 615 33 615 615 615 615 615 615 33 615 615 615 28 615 615 615 615 615 615 38
615 32 615 615 615 44 21 24 615 6 615 6 23 28 615 11 615 615 34 615 615 615 22 615 615 615 0 615 33 28 615 36 615 26 615 32 21 615 615 615 615 615 16 615 615 615 615 615 615 615 615 41 615 615 615 615 615 35 615 18 34 615 615 615 47 615 615
11 615 615 24 615 615 615 615 615 615 615 38 615 23 615 615 615 11 32 615 615 615 615 32 615 10 615 0 615 615 615 9 21 615 615 20 615 615 615 615 14 615 615 615 615 615 615 615 615 50 615 615 615 615 615 42 615 615 615 26 615 615 615 615 35 615 29
615 10 615 615 21 39 615 615 615 29 615 615 615 615 615 27 18 615 615 615 615 7 615 615 615 615 33 615 0 19 615 615 615 12 615 615 615 615 615 7 615 18 615 615 35 615 3 18 615 615 9 22 9 615 615 615 615 21 12 615 615 21 22 8 615 615 615
45 10 615 615 615 22 44 49 615 27 615 30 615 31 33 28 19 615 58 615 30 16 44 615 615 615 28 615 19 0 615 45 615 24 615 615 615 615 615 27 49 615 44 29 48 615 20 15 615 615 615 14 14 615 615 615 38 37 28 35 615 615 615 615 34 615 45
615 615 29 615 51 615 17 20 14 32 615 615 16 615 615 27 615 615 615 615 615 615 16 615 77 615 615 615 615 615 0 615 615 32 57 615 31 21 10 40 615 615 615 615 11 13 615 615 615 615 615 615 615 615 615 615 615 24 615 615 46 615 24 615 615 60 615
10 615 615 26 615 43 615 615 615 615 615 30 615 15 615 615 615 17 29 615 615 615 615 35 615 14 36 9 615 45 615 0 25 615 615 17 615 615 615 615 10 615 42 615 615 615 615 615 615 50 615 615 615 615 615 615 41 615 615 17 615 615 615 615 32 615 28
17 615 615 43 615 44 615 615 615 615 615 615 615 30 51 615 615 10 615 615 71 615 615 50 615 29 615 21 615 615 615 25 0 615 615 41 615 615 615 615 34 615 615 615 615 615 615 615 615 33 615 615 615 615 615 62 32 615 615 41 615 615 615 615 27 615 16
615 18 615 615 28 46 28 36 36 20 615 31 30 46 615 17 29 615 615 615 615 18 28 615 615 615 26 615 12 24 32 615 615 0 615 615 615 615 615 13 615 615 36 51 25 615 14 28 615 615 19 31 19 615 615 615 615 13 7 615 615 615 15 16 615 615 615
615 615 31 30 615 615 615 38 615 615 26 615 43 615 615 615 615 615 16 615 615 615 44 31 20 615 615 615 615 615 57 615 615 615 0 28 28 53 47 615 615 615 31 615 615 69 615 615 27 615 615 615 615 7 615 22 615 615 615 38 12 615 615 615 615 615 615
26 615 615 18 615 615 615 615 615 615 31 26 615 26 615 615 615 31 12 615 615 615 615 26 31 17 32 20 615 615 615 17 41 615 28 0 32 615 615 615 7 615 31 615 615 615 615 615 33 615 615 615 615 23 615 30 615 615 615 16 28 615 615 615 615 615 615
615 615 15 615 615 615 16 11 615 23 615 22 16 615 615 24 615 615 26 615 615 615 17 615 47 615 21 615 615 615 31 615 615 615 28 32 0 35 23 615 615 615 5 615 615 615 615 615 615 615 615 615 615 22 615 615 615 615 615 29 16 615 615 615 615 615 615
615 615 23 80 615 615 29 26 28 615 615 615 27 615 615 44 615 615 60 615 615 615 28 615 74 615 615 615 615 615 21 615 615 615 53 615 35 0 18 615 615 615 38 615 32 24 615 615 81 615 615 615 615 52 615 75 615 615 615 615 44 615 45 615 615 615 615
615 615 18 615 615 615 11 11 24 30 615 615 10 615 615 26 615 615 49 615 615 615 10 615 68 615 615 615 615 615 10 615 615 615 47 615 23 18 0 615 615 615 24 615 21 22 615 615 615 615 615 615 615 44 615 615 615 32 615 615 36 615 31 615 615 615 615
615 17 615 615 15 615 615 615 40 33 615 615 615 615 615 29 615 615 615 16 615 13 40 615 615 615 615 615 7 27 40 615 615 13 615 615 615 615 615 0 615 17 615 615 31 615 8 615 615 615 7 615 15 615 615 615 615 17 9 615 615 15 18 4 615 24 615
20 615 615 20 615 615 615 615 615 615 615 27 615 21 615 615 615 25 19 615 615 615 615 28 615 13 615 14 615 49 615 10 34 615 615 7 615 615 615 615 0 615 36 615 615 615 615 615 615 615 615 615 615 615 615 35 615 615 615 16 35 615 615 615 615 615 38
615 21 615 615 12 615 615 615 55 615 615 615 615 615 615 615 15 615 615 12 28 15 615 615 615 615 615 615 18 615 615 615 615 615 615 615 615 615 615 17 615 0 615 41 615 615 15 18 615 615 10 24 16 615 13 615 615 615 615 615 615 12 34 13 615 14 615
50 47 19 47 615 60 15 13 615 18 615 17 16 40 615 20 615 615 27 615 615 615 16 615 49 48 16 615 615 44 615 42 615 36 31 31 5 38 24 615 36 615 0 615 38 615 615 615 615 615 615 615 615 25 615 49 615 41 615 25 20 615 615 615 615 615 615
615 33 615 615 615 14 615 615 615 615 615 55 615 44 8 615 27 615 615 615 16 615 615 615 615 615 615 615 615 29 615 615 615 51 615 615 615 615 615 615 615 41 615 0 615 615 615 25 615 35 615 20 34 615 41 615 25 615 615 615 615 615 615 615 30 615 41
615 615 39 615 40 615 23 29 11 33 615 615 23 615 615 27 615 615 615 41 615 615 22 615 615 615 615 615 35 48 11 615 615 25 615 615 615 32 21 31 615 615 38 615 0 14 615 615 615 615 615 615 615 615 615 615 615 15 23 615 615 615 13 35 615 49 615
615 615 40 615 51 615 615 33 5 615 615 615 29 615 615 38 615 615 615 615 615 615 29 615 615 615 615 615 615 615 13 615 615 615 69 615 615 24 22 615 615 615 615 615 14 0 615 615 615 615 615 615 615 615 615 615 615 28 615 615 615 615 26 615 615 615 615
615 10 615 615 19 615 615 615 47 615 615 615 615 615 615 615 16 615 615 20 615 6 615 615 615 615 615 615 3 20 615 615 615 14 615 615 615 615 615 8 615 15 615 615 615 615 0 16 615 615 7 615 7 615 27 615 615 23 14 615 615 19 24 7 615 615 615
615 11 615 615 615 26 615 615 615 39 615 615 615 45 31 615 4 615 615 615 18 10 615 615 615 615 615 615 18 15 615 615 615 28 615 615 615 615 615 615 615 18 615 25 615 615 16 0 615 615 18 6 9 615 25 615 615 615 615 615 615 615 615 615 615 615 615
615 615 615 19 615 615 615 615 615 615 2 615 615 615 615 615 615 615 28 615 615 615 615 11 7 33 615 615 615 615 615 615 615 615 27 33 615 81 615 615 615 615 615 615 615 615 615 615 0 615 615 615 615 31 615 6 615 615 615 615 615 615 615 615 615 615 615
40 615 615 615 615 31 615 615 615 615 615 615 615 43 27 615 59 41 615 615 51 615 615 82 615 615 615 50 615 615 615 50 33 615 615 615 615 615 615 615 615 615 615 35 615 615 615 615 615 0 615 51 615 615 615 615 15 615 615 615 615 615 615 615 22 615 22
615 16 615 615 13 615 615 615 47 615 615 615 615 615 615 615 17 615 615 13 33 10 615 615 615 615 615 615 9 615 615 615 615 19 615 615 615 615 615 7 615 10 615 615 615 615 7 18 615 615 0 615 12 615 22 615 615 24 16 615 615 13 25 4 615 19 615
615 13 615 615 615 21 615 615 615 40 615 43 615 41 26 40 9 615 615 615 17 15 615 615 615 615 41 615 22 14 615 615 615 31 615 615 615 615 615 615 615 24 615 20 615 615 615 6 615 51 615 0 13 615 29 615 38 615 33 48 615 615 615 615 38 37 49
615 5 615 615 615 32 615 615 615 615 615 615 615 615 615 615 10 615 615 615 27 2 615 615 615 615 615 615 9 14 615 615 615 19 615 615 615 615 615 15 615 16 615 34 615 615 7 9 615 615 12 13 0 615 27 615 615 615 20 615 615 24 615 615 615 29 615
615 615 28 29 615 615 615 33 615 615 615 33 615 615 615 615 615 615 11 615 615 615 615 615 24 615 615 615 615 615 615 615 615 615 7 23 22 52 44 615 615 615 25 615 615 615 615 615 31 615 615 615 615 0 615 25 615 615 615 31 8 615 615 615 615 615 615
615 32 615 615 20 49 615 615 67 615 615 615 615 615 49 615 21 615 615 19 26 26 615 615 615 615 615 615 615 615 615 615 615 615 615 615 615 615 615 615 615 13 615 41 615 615 27 25 615 615 22 29 27 615 0 615 615 615 615 615 615 20 615 615 615 15 615
615 615 52 19 615 615 615 615 615 615 5 615 615 615 615 615 615 52 24 615 615 615 615 13 2 33 615 42 615 615 615 615 62 615 22 30 615 75 615 615 35 615 49 615 615 615 615 615 6 615 615 615 615 25 615 0 615 615 615 46 32 615 615 615 615 615 615
33 615 615 615 615 17 615 615 615 615 615 51 615 31 18 615 615 37 615 615 40 615 615 615 615 615 615 615 615 38 615 41 32 615 615 615 615 615 615 615 615 615 615 25 615 615 615 615 615 15 615 38 615 615 615 615 0 615 615 615 615 615 615 615 9 615 17
615 30 615 615 27 615 28 615 24 29 615 615 29 615 615 23 615 615 615 615 615 28 28 615 615 615 35 615 21 37 24 615 615 13 615 615 615 615 32 17 615 615 41 615 15 28 23 615 615 615 24 615 615 615 615 615 615 0 9 615 615 615 2 20 615 36 615
615 21 615 615 23 615 32 615 33 27 615 615 615 615 615 22 615 615 615 615 615 19 32 615 615 615 615 615 12 28 615 615 615 7 615 615 615 615 615 9 615 615 615 615 23 615 14 615 615 615 16 33 20 615 615 615 615 9 0 615 615 615 11 13 615 615 615
25 615 44 34 615 42 37 38 615 24 615 12 615 15 615 615 615 34 24 615 615 615 615 42 47 28 18 26 615 35 615 17 41 615 38 16 29 615 615 615 16 615 25 615 615 615 615 615 615 615 615 48 615 31 615 46 615 615 615 0 33 615 615 615 37 615 39
615 615 20 37 615 615 32 26 615 37 615 32 32 48 615 615 615 615 17 615 615 615 615 615 32 615 34 615 615 615 46 615 615 615 12 28 16 44 36 615 35 615 20 615 615 615 615 615 615 615 615 615 615 8 615 32 615 615 615 33 0 615 615 615 615 615 615
615 615 615 615 1 615 615 615 47 615 615 615 615 615 615 615 26 615 615 1 615 23 615 615 615 615 615 615 21 615 615 615 615 615 615 615 615 615 615 15 615 12 615 615 615 615 19 615 615 615 13 615 24 615 20 615 615 615 615 615 615 0 28 13 615 9 615
615 615 615 615 27 615 29 615 23 30 615 615 615 615 615 25 615 615 615 28 615 615 28 615 615 615 615 615 22 615 24 615 615 15 615 615 615 45 31 18 615 34 615 615 13 26 24 615 615 615 25 615 615 615 615 615 615 2 11 615 615 28 0 21 615 37 615
615 17 615 615 13 615 615 615 44 615 615 615 615 615 615 615 20 615 615 13 615 12 615 615 615 615 615 615 8 615 615 615 615 16 615 615 615 615 615 4 615 13 615 615 35 615 7 615 615 615 4 615 615 615 615 615 615 20 13 615 615 13 21 0 615 21 615
24 44 615 615 615 18 615 615 615 615 615 43 615 22 25 615 615 30 615 615 44 615 615 615 615 615 47 35 615 34 615 32 27 615 615 615 615 615 615 615 615 615 615 30 615 615 615 615 615 22 615 38 615 615 615 615 9 615 615 37 615 615 615 615 0 615 11
615 615 615 615 9 615 615 615 55 615 615 615 615 615 615 615 28 615 615 8 39 28 615 615 615 615 615 615 615 615 60 615 615 615 615 615 615 615 615 24 615 14 615 615 49 615 615 615 615 615 19 37 29 615 15 615 615 36 615 615 615 9 37 21 615 0 615
19 615 615 615 615 29 615 615 615 615 615 48 615 24 35 615 615 21 615 615 55 615 615 60 615 38 615 29 615 45 615 28 16 615 615 615 615 615 615 615 38 615 615 41 615 615 615 615 615 22 615 49 615 615 615 615 17 615 615 39 615 615 615 615 11 615 0
EOF
